c *********************************
c * Circuit generated by BenCGen
c *
c * RippleCarryAdder_16_16_16_InOutT
c *
c * Ports with 1 gate(s): 1
c * Ports with 2 gate(s): 81
c * Total gates: 82
c *********************************
p cnf 114 277
1 51 0
-1 -51 0
1 -50 0
51 -50 0
-1 -51 50 0
1 17 -53 0
-1 17 53 0
1 -17 53 0
-1 -17 -53 0
53 50 -33 0
-53 50 33 0
53 -50 33 0
-53 -50 -33 0
50 -54 0
53 -54 0
-50 -53 54 0
17 -55 0
1 -55 0
-17 -1 55 0
-54 52 0
-55 52 0
54 55 -52 0
2 18 -57 0
-2 18 57 0
2 -18 57 0
-2 -18 -57 0
57 52 -34 0
-57 52 34 0
57 -52 34 0
-57 -52 -34 0
52 -58 0
57 -58 0
-52 -57 58 0
18 -59 0
2 -59 0
-18 -2 59 0
-58 56 0
-59 56 0
58 59 -56 0
3 19 -61 0
-3 19 61 0
3 -19 61 0
-3 -19 -61 0
61 56 -35 0
-61 56 35 0
61 -56 35 0
-61 -56 -35 0
56 -62 0
61 -62 0
-56 -61 62 0
19 -63 0
3 -63 0
-19 -3 63 0
-62 60 0
-63 60 0
62 63 -60 0
4 20 -65 0
-4 20 65 0
4 -20 65 0
-4 -20 -65 0
65 60 -36 0
-65 60 36 0
65 -60 36 0
-65 -60 -36 0
60 -66 0
65 -66 0
-60 -65 66 0
20 -67 0
4 -67 0
-20 -4 67 0
-66 64 0
-67 64 0
66 67 -64 0
5 21 -69 0
-5 21 69 0
5 -21 69 0
-5 -21 -69 0
69 64 -37 0
-69 64 37 0
69 -64 37 0
-69 -64 -37 0
64 -70 0
69 -70 0
-64 -69 70 0
21 -71 0
5 -71 0
-21 -5 71 0
-70 68 0
-71 68 0
70 71 -68 0
6 22 -73 0
-6 22 73 0
6 -22 73 0
-6 -22 -73 0
73 68 -38 0
-73 68 38 0
73 -68 38 0
-73 -68 -38 0
68 -74 0
73 -74 0
-68 -73 74 0
22 -75 0
6 -75 0
-22 -6 75 0
-74 72 0
-75 72 0
74 75 -72 0
7 23 -77 0
-7 23 77 0
7 -23 77 0
-7 -23 -77 0
77 72 -39 0
-77 72 39 0
77 -72 39 0
-77 -72 -39 0
72 -78 0
77 -78 0
-72 -77 78 0
23 -79 0
7 -79 0
-23 -7 79 0
-78 76 0
-79 76 0
78 79 -76 0
8 24 -81 0
-8 24 81 0
8 -24 81 0
-8 -24 -81 0
81 76 -40 0
-81 76 40 0
81 -76 40 0
-81 -76 -40 0
76 -82 0
81 -82 0
-76 -81 82 0
24 -83 0
8 -83 0
-24 -8 83 0
-82 80 0
-83 80 0
82 83 -80 0
9 25 -85 0
-9 25 85 0
9 -25 85 0
-9 -25 -85 0
85 80 -41 0
-85 80 41 0
85 -80 41 0
-85 -80 -41 0
80 -86 0
85 -86 0
-80 -85 86 0
25 -87 0
9 -87 0
-25 -9 87 0
-86 84 0
-87 84 0
86 87 -84 0
10 26 -89 0
-10 26 89 0
10 -26 89 0
-10 -26 -89 0
89 84 -42 0
-89 84 42 0
89 -84 42 0
-89 -84 -42 0
84 -90 0
89 -90 0
-84 -89 90 0
26 -91 0
10 -91 0
-26 -10 91 0
-90 88 0
-91 88 0
90 91 -88 0
11 27 -93 0
-11 27 93 0
11 -27 93 0
-11 -27 -93 0
93 88 -43 0
-93 88 43 0
93 -88 43 0
-93 -88 -43 0
88 -94 0
93 -94 0
-88 -93 94 0
27 -95 0
11 -95 0
-27 -11 95 0
-94 92 0
-95 92 0
94 95 -92 0
12 28 -97 0
-12 28 97 0
12 -28 97 0
-12 -28 -97 0
97 92 -44 0
-97 92 44 0
97 -92 44 0
-97 -92 -44 0
92 -98 0
97 -98 0
-92 -97 98 0
28 -99 0
12 -99 0
-28 -12 99 0
-98 96 0
-99 96 0
98 99 -96 0
13 29 -101 0
-13 29 101 0
13 -29 101 0
-13 -29 -101 0
101 96 -45 0
-101 96 45 0
101 -96 45 0
-101 -96 -45 0
96 -102 0
101 -102 0
-96 -101 102 0
29 -103 0
13 -103 0
-29 -13 103 0
-102 100 0
-103 100 0
102 103 -100 0
14 30 -105 0
-14 30 105 0
14 -30 105 0
-14 -30 -105 0
105 100 -46 0
-105 100 46 0
105 -100 46 0
-105 -100 -46 0
100 -106 0
105 -106 0
-100 -105 106 0
30 -107 0
14 -107 0
-30 -14 107 0
-106 104 0
-107 104 0
106 107 -104 0
15 31 -109 0
-15 31 109 0
15 -31 109 0
-15 -31 -109 0
109 104 -47 0
-109 104 47 0
109 -104 47 0
-109 -104 -47 0
104 -110 0
109 -110 0
-104 -109 110 0
31 -111 0
15 -111 0
-31 -15 111 0
-110 108 0
-111 108 0
110 111 -108 0
16 32 -112 0
-16 32 112 0
16 -32 112 0
-16 -32 -112 0
112 108 -48 0
-112 108 48 0
112 -108 48 0
-112 -108 -48 0
108 -113 0
112 -113 0
-108 -112 113 0
32 -114 0
16 -114 0
-32 -16 114 0
-113 49 0
-114 49 0
113 114 -49 0
